NAME 75_1_25_1
ROWS
 N COST
 L LK0
 L FK0
COLUMNS
 X0 COST 4.
 X0 LK0 -1.
 X0 FK0 1.
 X1 COST 7.
 X1 LK0 3.
 X1 FK0 1.
 X2 COST -8.
 X2 LK0 4.
 X2 FK0 0.
 X3 COST -10.
 X3 LK0 1.
 X3 FK0 0.
 X4 COST 0.
 X4 LK0 -4.
 X4 FK0 0.
 X5 COST 3.
 X5 LK0 1.
 X5 FK0 1.
 X6 COST 1.
 X6 LK0 4.
 X6 FK0 0.
 X7 COST -10.
 X7 LK0 -3.
 X7 FK0 1.
 X8 COST 8.
 X8 LK0 -5.
 X8 FK0 0.
 X9 COST 7.
 X9 LK0 2.
 X9 FK0 1.
 X10 COST -4.
 X10 LK0 1.
 X10 FK0 0.
 X11 COST 3.
 X11 LK0 3.
 X11 FK0 0.
 X12 COST -7.
 X12 LK0 4.
 X12 FK0 0.
 X13 COST -3.
 X13 LK0 0.
 X13 FK0 1.
 X14 COST 10.
 X14 LK0 -5.
 X14 FK0 1.
 X15 COST 4.
 X15 LK0 -3.
 X15 FK0 1.
 X16 COST 10.
 X16 LK0 3.
 X16 FK0 1.
 X17 COST -2.
 X17 LK0 -5.
 X17 FK0 1.
 X18 COST -5.
 X18 LK0 5.
 X18 FK0 0.
 X19 COST -8.
 X19 LK0 1.
 X19 FK0 0.
 X20 COST 2.
 X20 LK0 -5.
 X20 FK0 1.
 X21 COST -9.
 X21 LK0 -3.
 X21 FK0 0.
 X22 COST -6.
 X22 LK0 -1.
 X22 FK0 1.
 X23 COST 2.
 X23 LK0 1.
 X23 FK0 0.
 X24 COST -8.
 X24 LK0 1.
 X24 FK0 0.
 X25 COST 3.
 X25 LK0 2.
 X25 FK0 1.
 X26 COST 4.
 X26 LK0 3.
 X26 FK0 0.
 X27 COST 3.
 X27 LK0 2.
 X27 FK0 0.
 X28 COST 10.
 X28 LK0 3.
 X28 FK0 0.
 X29 COST 7.
 X29 LK0 0.
 X29 FK0 1.
 X30 COST 9.
 X30 LK0 5.
 X30 FK0 0.
 X31 COST -10.
 X31 LK0 2.
 X31 FK0 0.
 X32 COST 9.
 X32 LK0 1.
 X32 FK0 1.
 X33 COST -6.
 X33 LK0 4.
 X33 FK0 1.
 X34 COST 3.
 X34 LK0 4.
 X34 FK0 1.
 X35 COST -3.
 X35 LK0 3.
 X35 FK0 1.
 X36 COST 2.
 X36 LK0 0.
 X36 FK0 1.
 X37 COST 1.
 X37 LK0 5.
 X37 FK0 1.
 X38 COST -6.
 X38 LK0 4.
 X38 FK0 1.
 X39 COST 5.
 X39 LK0 1.
 X39 FK0 0.
 X40 COST 3.
 X40 LK0 3.
 X40 FK0 0.
 X41 COST 1.
 X41 LK0 5.
 X41 FK0 0.
 X42 COST 5.
 X42 LK0 -5.
 X42 FK0 0.
 X43 COST 8.
 X43 LK0 -4.
 X43 FK0 1.
 X44 COST -8.
 X44 LK0 -1.
 X44 FK0 0.
 X45 COST -3.
 X45 LK0 -1.
 X45 FK0 1.
 X46 COST -9.
 X46 LK0 -1.
 X46 FK0 1.
 X47 COST 1.
 X47 LK0 1.
 X47 FK0 1.
 X48 COST -3.
 X48 LK0 -5.
 X48 FK0 1.
 X49 COST -5.
 X49 LK0 -3.
 X49 FK0 1.
 X50 COST 6.
 X50 LK0 -4.
 X50 FK0 0.
 X51 COST -1.
 X51 LK0 3.
 X51 FK0 1.
 X52 COST 6.
 X52 LK0 2.
 X52 FK0 1.
 X53 COST 3.
 X53 LK0 3.
 X53 FK0 1.
 X54 COST 8.
 X54 LK0 5.
 X54 FK0 1.
 X55 COST 0.
 X55 LK0 -3.
 X55 FK0 1.
 X56 COST -4.
 X56 LK0 0.
 X56 FK0 0.
 X57 COST -4.
 X57 LK0 3.
 X57 FK0 1.
 X58 COST -10.
 X58 LK0 -5.
 X58 FK0 1.
 X59 COST 2.
 X59 LK0 -5.
 X59 FK0 0.
 X60 COST 6.
 X60 LK0 -5.
 X60 FK0 1.
 X61 COST 6.
 X61 LK0 5.
 X61 FK0 0.
 X62 COST 6.
 X62 LK0 3.
 X62 FK0 0.
 X63 COST -10.
 X63 LK0 -1.
 X63 FK0 1.
 X64 COST -9.
 X64 LK0 5.
 X64 FK0 1.
 X65 COST 9.
 X65 LK0 1.
 X65 FK0 1.
 X66 COST -4.
 X66 LK0 -1.
 X66 FK0 1.
 X67 COST 7.
 X67 LK0 -4.
 X67 FK0 1.
 X68 COST 1.
 X68 LK0 4.
 X68 FK0 0.
 X69 COST -1.
 X69 LK0 -4.
 X69 FK0 1.
 X70 COST 1.
 X70 LK0 -4.
 X70 FK0 1.
 X71 COST 1.
 X71 LK0 -1.
 X71 FK0 1.
 X72 COST 4.
 X72 LK0 2.
 X72 FK0 0.
 X73 COST 4.
 X73 LK0 0.
 X73 FK0 1.
 X74 COST -7.
 X74 LK0 -5.
 X74 FK0 1.
 Y0 COST -9.
 Y0 LK0 0.
 Y0 FK0 -1.
 Y1 COST -7.
 Y1 LK0 0.
 Y1 FK0 4.
 Y2 COST 7.
 Y2 LK0 0.
 Y2 FK0 1.
 Y3 COST -2.
 Y3 LK0 1.
 Y3 FK0 -2.
 Y4 COST -5.
 Y4 LK0 1.
 Y4 FK0 -5.
 Y5 COST -10.
 Y5 LK0 0.
 Y5 FK0 -5.
 Y6 COST 10.
 Y6 LK0 0.
 Y6 FK0 1.
 Y7 COST -3.
 Y7 LK0 1.
 Y7 FK0 -4.
 Y8 COST 10.
 Y8 LK0 1.
 Y8 FK0 2.
 Y9 COST -4.
 Y9 LK0 0.
 Y9 FK0 1.
 Y10 COST -6.
 Y10 LK0 1.
 Y10 FK0 5.
 Y11 COST 5.
 Y11 LK0 0.
 Y11 FK0 -1.
 Y12 COST 6.
 Y12 LK0 0.
 Y12 FK0 1.
 Y13 COST 4.
 Y13 LK0 1.
 Y13 FK0 0.
 Y14 COST 3.
 Y14 LK0 1.
 Y14 FK0 3.
 Y15 COST -1.
 Y15 LK0 1.
 Y15 FK0 3.
 Y16 COST 5.
 Y16 LK0 0.
 Y16 FK0 -2.
 Y17 COST -10.
 Y17 LK0 1.
 Y17 FK0 -5.
 Y18 COST -8.
 Y18 LK0 1.
 Y18 FK0 -4.
 Y19 COST 10.
 Y19 LK0 1.
 Y19 FK0 0.
 Y20 COST 1.
 Y20 LK0 0.
 Y20 FK0 -4.
 Y21 COST -9.
 Y21 LK0 0.
 Y21 FK0 2.
 Y22 COST -6.
 Y22 LK0 1.
 Y22 FK0 -4.
 Y23 COST -2.
 Y23 LK0 0.
 Y23 FK0 5.
 Y24 COST -6.
 Y24 LK0 1.
 Y24 FK0 0.
 Y25 COST -6.
 Y25 LK0 0.
 Y25 FK0 5.
 Y26 COST 10.
 Y26 LK0 0.
 Y26 FK0 4.
 Y27 COST -8.
 Y27 LK0 1.
 Y27 FK0 -4.
 Y28 COST -8.
 Y28 LK0 1.
 Y28 FK0 4.
 Y29 COST -2.
 Y29 LK0 0.
 Y29 FK0 5.
 Y30 COST 7.
 Y30 LK0 0.
 Y30 FK0 0.
 Y31 COST -1.
 Y31 LK0 0.
 Y31 FK0 5.
 Y32 COST -9.
 Y32 LK0 1.
 Y32 FK0 -3.
 Y33 COST 3.
 Y33 LK0 0.
 Y33 FK0 2.
 Y34 COST 6.
 Y34 LK0 0.
 Y34 FK0 -4.
 Y35 COST -4.
 Y35 LK0 0.
 Y35 FK0 -1.
 Y36 COST -4.
 Y36 LK0 0.
 Y36 FK0 3.
 Y37 COST -7.
 Y37 LK0 0.
 Y37 FK0 -4.
 Y38 COST 7.
 Y38 LK0 1.
 Y38 FK0 -2.
 Y39 COST 6.
 Y39 LK0 0.
 Y39 FK0 3.
 Y40 COST 2.
 Y40 LK0 1.
 Y40 FK0 3.
 Y41 COST 10.
 Y41 LK0 1.
 Y41 FK0 4.
 Y42 COST -9.
 Y42 LK0 0.
 Y42 FK0 -2.
 Y43 COST 3.
 Y43 LK0 0.
 Y43 FK0 -4.
 Y44 COST -10.
 Y44 LK0 0.
 Y44 FK0 3.
 Y45 COST 5.
 Y45 LK0 0.
 Y45 FK0 1.
 Y46 COST -5.
 Y46 LK0 1.
 Y46 FK0 3.
 Y47 COST -10.
 Y47 LK0 1.
 Y47 FK0 -5.
 Y48 COST -1.
 Y48 LK0 1.
 Y48 FK0 -2.
 Y49 COST -10.
 Y49 LK0 0.
 Y49 FK0 -3.
 Y50 COST 5.
 Y50 LK0 0.
 Y50 FK0 5.
 Y51 COST 8.
 Y51 LK0 1.
 Y51 FK0 2.
 Y52 COST -8.
 Y52 LK0 0.
 Y52 FK0 4.
 Y53 COST -10.
 Y53 LK0 0.
 Y53 FK0 2.
 Y54 COST 4.
 Y54 LK0 0.
 Y54 FK0 2.
 Y55 COST -7.
 Y55 LK0 1.
 Y55 FK0 -3.
 Y56 COST -9.
 Y56 LK0 0.
 Y56 FK0 2.
 Y57 COST 1.
 Y57 LK0 0.
 Y57 FK0 -3.
 Y58 COST 9.
 Y58 LK0 0.
 Y58 FK0 3.
 Y59 COST -7.
 Y59 LK0 0.
 Y59 FK0 2.
 Y60 COST -6.
 Y60 LK0 0.
 Y60 FK0 2.
 Y61 COST -2.
 Y61 LK0 1.
 Y61 FK0 3.
 Y62 COST -6.
 Y62 LK0 0.
 Y62 FK0 -2.
 Y63 COST -9.
 Y63 LK0 0.
 Y63 FK0 -3.
 Y64 COST -4.
 Y64 LK0 0.
 Y64 FK0 -2.
 Y65 COST -2.
 Y65 LK0 0.
 Y65 FK0 3.
 Y66 COST 9.
 Y66 LK0 1.
 Y66 FK0 -5.
 Y67 COST -9.
 Y67 LK0 0.
 Y67 FK0 -5.
 Y68 COST -6.
 Y68 LK0 1.
 Y68 FK0 3.
 Y69 COST 1.
 Y69 LK0 1.
 Y69 FK0 5.
 Y70 COST 2.
 Y70 LK0 0.
 Y70 FK0 2.
 Y71 COST -6.
 Y71 LK0 0.
 Y71 FK0 -3.
 Y72 COST -8.
 Y72 LK0 1.
 Y72 FK0 5.
 Y73 COST 8.
 Y73 LK0 0.
 Y73 FK0 -5.
 Y74 COST -7.
 Y74 LK0 1.
 Y74 FK0 3.
RHS
 RHS LK0 13.
 RHS FK0 16.
BOUNDS
 UI BOUND	X0	1.
 LI BOUND	X0	0.
 UI BOUND	X1	1.
 LI BOUND	X1	0.
 UI BOUND	X2	1.
 LI BOUND	X2	0.
 UI BOUND	X3	1.
 LI BOUND	X3	0.
 UI BOUND	X4	1.
 LI BOUND	X4	0.
 UI BOUND	X5	1.
 LI BOUND	X5	0.
 UI BOUND	X6	1.
 LI BOUND	X6	0.
 UI BOUND	X7	1.
 LI BOUND	X7	0.
 UI BOUND	X8	1.
 LI BOUND	X8	0.
 UI BOUND	X9	1.
 LI BOUND	X9	0.
 UI BOUND	X10	1.
 LI BOUND	X10	0.
 UI BOUND	X11	1.
 LI BOUND	X11	0.
 UI BOUND	X12	1.
 LI BOUND	X12	0.
 UI BOUND	X13	1.
 LI BOUND	X13	0.
 UI BOUND	X14	1.
 LI BOUND	X14	0.
 UI BOUND	X15	1.
 LI BOUND	X15	0.
 UI BOUND	X16	1.
 LI BOUND	X16	0.
 UI BOUND	X17	1.
 LI BOUND	X17	0.
 UI BOUND	X18	1.
 LI BOUND	X18	0.
 UI BOUND	X19	1.
 LI BOUND	X19	0.
 UI BOUND	X20	1.
 LI BOUND	X20	0.
 UI BOUND	X21	1.
 LI BOUND	X21	0.
 UI BOUND	X22	1.
 LI BOUND	X22	0.
 UI BOUND	X23	1.
 LI BOUND	X23	0.
 UI BOUND	X24	1.
 LI BOUND	X24	0.
 UI BOUND	X25	1.
 LI BOUND	X25	0.
 UI BOUND	X26	1.
 LI BOUND	X26	0.
 UI BOUND	X27	1.
 LI BOUND	X27	0.
 UI BOUND	X28	1.
 LI BOUND	X28	0.
 UI BOUND	X29	1.
 LI BOUND	X29	0.
 UI BOUND	X30	1.
 LI BOUND	X30	0.
 UI BOUND	X31	1.
 LI BOUND	X31	0.
 UI BOUND	X32	1.
 LI BOUND	X32	0.
 UI BOUND	X33	1.
 LI BOUND	X33	0.
 UI BOUND	X34	1.
 LI BOUND	X34	0.
 UI BOUND	X35	1.
 LI BOUND	X35	0.
 UI BOUND	X36	1.
 LI BOUND	X36	0.
 UI BOUND	X37	1.
 LI BOUND	X37	0.
 UI BOUND	X38	1.
 LI BOUND	X38	0.
 UI BOUND	X39	1.
 LI BOUND	X39	0.
 UI BOUND	X40	1.
 LI BOUND	X40	0.
 UI BOUND	X41	1.
 LI BOUND	X41	0.
 UI BOUND	X42	1.
 LI BOUND	X42	0.
 UI BOUND	X43	1.
 LI BOUND	X43	0.
 UI BOUND	X44	1.
 LI BOUND	X44	0.
 UI BOUND	X45	1.
 LI BOUND	X45	0.
 UI BOUND	X46	1.
 LI BOUND	X46	0.
 UI BOUND	X47	1.
 LI BOUND	X47	0.
 UI BOUND	X48	1.
 LI BOUND	X48	0.
 UI BOUND	X49	1.
 LI BOUND	X49	0.
 UI BOUND	X50	1.
 LI BOUND	X50	0.
 UI BOUND	X51	1.
 LI BOUND	X51	0.
 UI BOUND	X52	1.
 LI BOUND	X52	0.
 UI BOUND	X53	1.
 LI BOUND	X53	0.
 UI BOUND	X54	1.
 LI BOUND	X54	0.
 UI BOUND	X55	1.
 LI BOUND	X55	0.
 UI BOUND	X56	1.
 LI BOUND	X56	0.
 UI BOUND	X57	1.
 LI BOUND	X57	0.
 UI BOUND	X58	1.
 LI BOUND	X58	0.
 UI BOUND	X59	1.
 LI BOUND	X59	0.
 UI BOUND	X60	1.
 LI BOUND	X60	0.
 UI BOUND	X61	1.
 LI BOUND	X61	0.
 UI BOUND	X62	1.
 LI BOUND	X62	0.
 UI BOUND	X63	1.
 LI BOUND	X63	0.
 UI BOUND	X64	1.
 LI BOUND	X64	0.
 UI BOUND	X65	1.
 LI BOUND	X65	0.
 UI BOUND	X66	1.
 LI BOUND	X66	0.
 UI BOUND	X67	1.
 LI BOUND	X67	0.
 UI BOUND	X68	1.
 LI BOUND	X68	0.
 UI BOUND	X69	1.
 LI BOUND	X69	0.
 UI BOUND	X70	1.
 LI BOUND	X70	0.
 UI BOUND	X71	1.
 LI BOUND	X71	0.
 UI BOUND	X72	1.
 LI BOUND	X72	0.
 UI BOUND	X73	1.
 LI BOUND	X73	0.
 UI BOUND	X74	1.
 LI BOUND	X74	0.
 UI BOUND	Y0	1.
 LI BOUND	Y0	0.
 UI BOUND	Y1	1.
 LI BOUND	Y1	0.
 UI BOUND	Y2	1.
 LI BOUND	Y2	0.
 UI BOUND	Y3	1.
 LI BOUND	Y3	0.
 UI BOUND	Y4	1.
 LI BOUND	Y4	0.
 UI BOUND	Y5	1.
 LI BOUND	Y5	0.
 UI BOUND	Y6	1.
 LI BOUND	Y6	0.
 UI BOUND	Y7	1.
 LI BOUND	Y7	0.
 UI BOUND	Y8	1.
 LI BOUND	Y8	0.
 UI BOUND	Y9	1.
 LI BOUND	Y9	0.
 UI BOUND	Y10	1.
 LI BOUND	Y10	0.
 UI BOUND	Y11	1.
 LI BOUND	Y11	0.
 UI BOUND	Y12	1.
 LI BOUND	Y12	0.
 UI BOUND	Y13	1.
 LI BOUND	Y13	0.
 UI BOUND	Y14	1.
 LI BOUND	Y14	0.
 UI BOUND	Y15	1.
 LI BOUND	Y15	0.
 UI BOUND	Y16	1.
 LI BOUND	Y16	0.
 UI BOUND	Y17	1.
 LI BOUND	Y17	0.
 UI BOUND	Y18	1.
 LI BOUND	Y18	0.
 UI BOUND	Y19	1.
 LI BOUND	Y19	0.
 UI BOUND	Y20	1.
 LI BOUND	Y20	0.
 UI BOUND	Y21	1.
 LI BOUND	Y21	0.
 UI BOUND	Y22	1.
 LI BOUND	Y22	0.
 UI BOUND	Y23	1.
 LI BOUND	Y23	0.
 UI BOUND	Y24	1.
 LI BOUND	Y24	0.
 UI BOUND	Y25	1.
 LI BOUND	Y25	0.
 UI BOUND	Y26	1.
 LI BOUND	Y26	0.
 UI BOUND	Y27	1.
 LI BOUND	Y27	0.
 UI BOUND	Y28	1.
 LI BOUND	Y28	0.
 UI BOUND	Y29	1.
 LI BOUND	Y29	0.
 UI BOUND	Y30	1.
 LI BOUND	Y30	0.
 UI BOUND	Y31	1.
 LI BOUND	Y31	0.
 UI BOUND	Y32	1.
 LI BOUND	Y32	0.
 UI BOUND	Y33	1.
 LI BOUND	Y33	0.
 UI BOUND	Y34	1.
 LI BOUND	Y34	0.
 UI BOUND	Y35	1.
 LI BOUND	Y35	0.
 UI BOUND	Y36	1.
 LI BOUND	Y36	0.
 UI BOUND	Y37	1.
 LI BOUND	Y37	0.
 UI BOUND	Y38	1.
 LI BOUND	Y38	0.
 UI BOUND	Y39	1.
 LI BOUND	Y39	0.
 UI BOUND	Y40	1.
 LI BOUND	Y40	0.
 UI BOUND	Y41	1.
 LI BOUND	Y41	0.
 UI BOUND	Y42	1.
 LI BOUND	Y42	0.
 UI BOUND	Y43	1.
 LI BOUND	Y43	0.
 UI BOUND	Y44	1.
 LI BOUND	Y44	0.
 UI BOUND	Y45	1.
 LI BOUND	Y45	0.
 UI BOUND	Y46	1.
 LI BOUND	Y46	0.
 UI BOUND	Y47	1.
 LI BOUND	Y47	0.
 UI BOUND	Y48	1.
 LI BOUND	Y48	0.
 UI BOUND	Y49	1.
 LI BOUND	Y49	0.
 UI BOUND	Y50	1.
 LI BOUND	Y50	0.
 UI BOUND	Y51	1.
 LI BOUND	Y51	0.
 UI BOUND	Y52	1.
 LI BOUND	Y52	0.
 UI BOUND	Y53	1.
 LI BOUND	Y53	0.
 UI BOUND	Y54	1.
 LI BOUND	Y54	0.
 UI BOUND	Y55	1.
 LI BOUND	Y55	0.
 UI BOUND	Y56	1.
 LI BOUND	Y56	0.
 UI BOUND	Y57	1.
 LI BOUND	Y57	0.
 UI BOUND	Y58	1.
 LI BOUND	Y58	0.
 UI BOUND	Y59	1.
 LI BOUND	Y59	0.
 UI BOUND	Y60	1.
 LI BOUND	Y60	0.
 UI BOUND	Y61	1.
 LI BOUND	Y61	0.
 UI BOUND	Y62	1.
 LI BOUND	Y62	0.
 UI BOUND	Y63	1.
 LI BOUND	Y63	0.
 UI BOUND	Y64	1.
 LI BOUND	Y64	0.
 UI BOUND	Y65	1.
 LI BOUND	Y65	0.
 UI BOUND	Y66	1.
 LI BOUND	Y66	0.
 UI BOUND	Y67	1.
 LI BOUND	Y67	0.
 UI BOUND	Y68	1.
 LI BOUND	Y68	0.
 UI BOUND	Y69	1.
 LI BOUND	Y69	0.
 UI BOUND	Y70	1.
 LI BOUND	Y70	0.
 UI BOUND	Y71	1.
 LI BOUND	Y71	0.
 UI BOUND	Y72	1.
 LI BOUND	Y72	0.
 UI BOUND	Y73	1.
 LI BOUND	Y73	0.
 UI BOUND	Y74	1.
 LI BOUND	Y74	0.
ENDATA
